\ENCODING=ISO-8859-1
\Problem name: ilog.cplex

Minimize
 obj1: 93014 x1 + 98589 x2 + 109739 x3 + 109668 x4 + 94356 x5 + 95079 x6
       + 103171 x7 + 108362 x8 + 99396 x9 + 91335 x10 + 109416 x11 + 94007 x12
       + 104465 x13 + 106707 x14 + 101998 x15 + 101305 x16 + 95671 x17
       + 96320 x18 + 104508 x19 + 104284 x20 + 93395 x21 + 106270 x22
       + 91702 x23 + 98220 x24 + 102939 x25 + 94639 x26 + 104762 x27
       + 108035 x28 + 109419 x29 + 105949 x30 + 94233 x31 + 92862 x32
       + 109682 x33 + 100930 x34 + 109115 x35 + 93483 x36 + 94364 x37
       + 108356 x38 + 91264 x39 + 107068 x40 + 99184 x41 + 101161 x42
       + 90518 x43 + 91902 x44 + 96111 x45 + 105181 x46 + 107860 x47
       + 103747 x48 + 92293 x49 + 105601 x50 + 103551 x51 + 93431 x52
       + 108070 x53 + 108747 x54 + 93273 x55 + 94496 x56 + 94960 x57
       + 96836 x58 + 98919 x59 + 96927 x60 + 96925 x61 + 95252 x62 + 109238 x63
       + 97705 x64 + 99546 x65 + 102203 x66 + 98321 x67 + 98220 x68
       + 101728 x69 + 93526 x70 + 101025 x71 + 108745 x72 + 100136 x73
       + 102788 x74 + 102819 x75 + 102638 x76 + 94663 x77 + 106514 x78
       + 105549 x79 + 97736 x80 + 94975 x81 + 90421 x82 + 102962 x83
       + 90596 x84 + 93427 x85 + 105956 x86 + 102826 x87 + 92964 x88
       + 95401 x89 + 105525 x90 + 106099 x91 + 99277 x92 + 104560 x93
       + 109542 x94 + 97833 x95 + 109008 x96 + 107562 x97 + 108692 x98
       + 99364 x99 + 98317 x100 + 101727 x101 + 107203 x102 + 103505 x103
       + 97164 x104 + 106457 x105 + 90026 x106 + 90174 x107 + 109467 x108
       + 99551 x109 + 100123 x110 + 91320 x111 + 106997 x112 + 101092 x113
       + 108393 x114 + 99747 x115 + 93028 x116 + 105545 x117 + 105848 x118
       + 103701 x119 + 92435 x120 + 97701 x121 + 95209 x122 + 101070 x123
       + 100101 x124 + 109675 x125 + 107130 x126 + 103217 x127 + 97088 x128
       + 101079 x129 + 97150 x130 + 98032 x131 + 96045 x132 + 95757 x133
       + 92830 x134 + 108301 x135 + 98385 x136 + 95352 x137 + 94387 x138
       + 93743 x139 + 97549 x140 + 92518 x141 + 106768 x142 + 102881 x143
       + 105003 x144 + 104706 x145 + 96200 x146 + 104368 x147 + 108630 x148
       + 103242 x149 + 100125 x150 + 95804 x151 + 108162 x152 + 95390 x153
       + 93433 x154 + 109957 x155 + 105463 x156 + 90836 x157 + 105822 x158
       + 109459 x159 + 102905 x160 + 105861 x161 + 100969 x162 + 91428 x163
       + 91232 x164 + 103052 x165 + 97074 x166 + 109958 x167 + 109935 x168
       + 106270 x169 + 98188 x170 + 96310 x171 + 95904 x172 + 98198 x173
       + 100173 x174 + 109541 x175 + 107992 x176 + 90046 x177 + 100363 x178
       + 95349 x179 + 101345 x180 + 108082 x181 + 92684 x182 + 92352 x183
       + 105070 x184 + 100904 x185 + 100013 x186 + 107062 x187 + 102156 x188
       + 101208 x189 + 101210 x190 + 101480 x191 + 101478 x192 + 96328 x193
       + 91513 x194 + 100558 x195 + 108360 x196 + 92901 x197 + 91889 x198
       + 90689 x199 + 102318 x200 + 98475 x201 + 109692 x202 + 107223 x203
       + 95902 x204 + 102585 x205 + 98997 x206 + 97196 x207 + 102886 x208
       + 108683 x209 + 106807 x210 + 106223 x211 + 106521 x212 + 93084 x213
       + 108596 x214 + 99076 x215 + 90984 x216 + 108799 x217 + 102579 x218
       + 109802 x219 + 101657 x220 + 100372 x221 + 108500 x222 + 90733 x223
       + 94380 x224 + 100741 x225 + 98606 x226 + 98377 x227 + 101356 x228
       + 98929 x229 + 104322 x230 + 106977 x231 + 108341 x232 + 100200 x233
       + 99505 x234 + 93632 x235 + 107894 x236 + 98763 x237 + 109157 x238
       + 107681 x239 + 104306 x240 + 107225 x241 + 91060 x242 + 101400 x243
       + 97215 x244 + 96642 x245 + 107066 x246 + 99139 x247 + 102986 x248
       + 96413 x249 - 71533 x250 + 205831 x251 + 190271 x252 + 185627 x253
       + 213871 x254 + 190368 x255 + 191401 x256 + 186664 x257 + 202106 x258
       + 211339 x259 + 185160 x260 + 186632 x261 + 213337 x262 + 216825 x263
       + 219745 x264 + 214637 x265 + 189862 x266 + 197613 x267 + 216853 x268
       + 210782 x269 + 210106 x270 + 200150 x271 + 207698 x272 + 182266 x273
       + 193088 x274 + 189968 x275 + 181092 x276 + 197377 x277 + 201794 x278
       + 193789 x279 + 203690 x280 + 194033 x281 + 206381 x282 + 211342 x283
       + 192580 x284 + 219243 x285 + 210041 x286 + 214567 x287 + 214148 x288
       + 219350 x289 + 196026 x290 + 182178 x291 + 210716 x292 + 188148 x293
       + 183761 x294 + 191717 x295 + 217735 x296 + 190917 x297 + 185095 x298
       + 189026 x299 + 193054 x300
Subject To
 c1:   - x1 + x18 - x21 - x23 - x30 + x31 - x33 + x39 + x41 + x44 + x45 + x49
        = 0
 c2:   - x51 + x68 - x71 - x73 - x80 + x81 - x83 + x89 + x91 + x94 + x95 + x99
        = 0
 c3:   - x101 + x118 - x121 - x123 - x130 + x131 - x133 + x139 + x141 + x144
       + x145 + x149  = 0
 c4:   - x151 + x168 - x171 - x173 - x180 + x181 - x183 + x189 + x191 + x194
       + x195 + x199  = 0
 c5:   - x201 + x218 - x221 - x223 - x230 + x231 - x233 + x239 + x241 + x244
       + x245 + x249  = 0
 c6:   - x5 - x8 + x10 + x11 + x16 + x17 + x21 - x27 + x29 - x32 + x34 - x37
       - x41 - x43  = -1
 c7:   - x55 - x58 + x60 + x61 + x66 + x67 + x71 - x77 + x79 - x82 + x84 - x87
       - x91 - x93  = 0
 c8:   - x105 - x108 + x110 + x111 + x116 + x117 + x121 - x127 + x129 - x132
       + x134 - x137 - x141 - x143  = 0
 c9:   - x155 - x158 + x160 + x161 + x166 + x167 + x171 - x177 + x179 - x182
       + x184 - x187 - x191 - x193  = 0
 c10:  - x205 - x208 + x210 + x211 + x216 + x217 + x221 - x227 + x229 - x232
       + x234 - x237 - x241 - x243  = 0
 c11:  - x3 + x4 - x6 + x9 - x10 + x12 + x14 - x25 + x35 - x38 - x45 - x46
       + x47  = 1
 c12:  - x53 + x54 - x56 + x59 - x60 + x62 + x64 - x75 + x85 - x88 - x95 - x96
       + x97  = 0
 c13:  - x103 + x104 - x106 + x109 - x110 + x112 + x114 - x125 + x135 - x138
       - x145 - x146 + x147  = 0
 c14:  - x153 + x154 - x156 + x159 - x160 + x162 + x164 - x175 + x185 - x188
       - x195 - x196 + x197  = 0
 c15:  - x203 + x204 - x206 + x209 - x210 + x212 + x214 - x225 + x235 - x238
       - x245 - x246 + x247  = 1
 c16:  - x2 - x4 + x13 - x16 + x25 + x27 - x28 + x33 + x36 - x44  = 0
 c17:  - x52 - x54 + x63 - x66 + x75 + x77 - x78 + x83 + x86 - x94  = 0
 c18:  - x102 - x104 + x113 - x116 + x125 + x127 - x128 + x133 + x136 - x144
        = -1
 c19:  - x152 - x154 + x163 - x166 + x175 + x177 - x178 + x183 + x186 - x194
        = 1
 c20:  - x202 - x204 + x213 - x216 + x225 + x227 - x228 + x233 + x236 - x244
        = 0
 c21:  - x9 - x11 - x24 + x26 + x28 + x38 + x42 + x43 - x50  = 0
 c22:  - x59 - x61 - x74 + x76 + x78 + x88 + x92 + x93 - x100  = 0
 c23:  - x109 - x111 - x124 + x126 + x128 + x138 + x142 + x143 - x150  = 0
 c24:  - x159 - x161 - x174 + x176 + x178 + x188 + x192 + x193 - x200  = 0
 c25:  - x209 - x211 - x224 + x226 + x228 + x238 + x242 + x243 - x250  = 0
 c26:  x3 - x7 + x8 - x14 - x17 - x20 - x36 + x40  = 0
 c27:  x53 - x57 + x58 - x64 - x67 - x70 - x86 + x90  = 0
 c28:  x103 - x107 + x108 - x114 - x117 - x120 - x136 + x140  = 1
 c29:  x153 - x157 + x158 - x164 - x167 - x170 - x186 + x190  = -1
 c30:  x203 - x207 + x208 - x214 - x217 - x220 - x236 + x240  = 0
 c31:  x5 + x15 + x23 + x24 - x31 - x34 - x48  = 0
 c32:  x55 + x65 + x73 + x74 - x81 - x84 - x98  = 0
 c33:  x105 + x115 + x123 + x124 - x131 - x134 - x148  = 0
 c34:  x155 + x165 + x173 + x174 - x181 - x184 - x198  = 0
 c35:  x205 + x215 + x223 + x224 - x231 - x234 - x248  = 0
 c36:  x6 + x7 - x13 + x19 + x22 + x30 + x32 - x35 - x39 - x42 + x48  = 0
 c37:  x56 + x57 - x63 + x69 + x72 + x80 + x82 - x85 - x89 - x92 + x98  = 1
 c38:  x106 + x107 - x113 + x119 + x122 + x130 + x132 - x135 - x139 - x142
       + x148  = 0
 c39:  x156 + x157 - x163 + x169 + x172 + x180 + x182 - x185 - x189 - x192
       + x198  = 0
 c40:  x206 + x207 - x213 + x219 + x222 + x230 + x232 - x235 - x239 - x242
       + x248  = -1
 c41:  x2 - x12 + x20 - x22 - x26 - x29 + x37 - x40 - x49 + x50  = 0
 c42:  x52 - x62 + x70 - x72 - x76 - x79 + x87 - x90 - x99 + x100  = -1
 c43:  x102 - x112 + x120 - x122 - x126 - x129 + x137 - x140 - x149 + x150  = 0
 c44:  x152 - x162 + x170 - x172 - x176 - x179 + x187 - x190 - x199 + x200  = 0
 c45:  x202 - x212 + x220 - x222 - x226 - x229 + x237 - x240 - x249 + x250  = 0
 c46:  x1 - x15 - x18 - x19 + x46 - x47  = 0
 c47:  x51 - x65 - x68 - x69 + x96 - x97  = 0
 c48:  x101 - x115 - x118 - x119 + x146 - x147  = 0
 c49:  x151 - x165 - x168 - x169 + x196 - x197  = 0
 c50:  x201 - x215 - x218 - x219 + x246 - x247  = 0
 c51:  4 x1 + 4 x51 + 4 x101 + 4 x151 + 4 x201 - 2 x251 <= 0
 c52:  4 x2 + 4 x52 + 4 x102 + 4 x152 + 4 x202 - 2 x252 <= 0
 c53:  4 x3 + 4 x53 + 4 x103 + 4 x153 + 4 x203 - 2 x253 <= 0
 c54:  4 x4 + 4 x54 + 4 x104 + 4 x154 + 4 x204 - 2 x254 <= 0
 c55:  4 x5 + 4 x55 + 4 x105 + 4 x155 + 4 x205 - 2 x255 <= 0
 c56:  4 x6 + 4 x56 + 4 x106 + 4 x156 + 4 x206 - 2 x256 <= 0
 c57:  4 x7 + 4 x57 + 4 x107 + 4 x157 + 4 x207 - 2 x257 <= 0
 c58:  4 x8 + 4 x58 + 4 x108 + 4 x158 + 4 x208 - 2 x258 <= 0
 c59:  4 x9 + 4 x59 + 4 x109 + 4 x159 + 4 x209 - 2 x259 <= 0
 c60:  4 x10 + 4 x60 + 4 x110 + 4 x160 + 4 x210 - 2 x260 <= 0
 c61:  4 x11 + 4 x61 + 4 x111 + 4 x161 + 4 x211 - 2 x261 <= 0
 c62:  4 x12 + 4 x62 + 4 x112 + 4 x162 + 4 x212 - 2 x262 <= 0
 c63:  4 x13 + 4 x63 + 4 x113 + 4 x163 + 4 x213 - 2 x263 <= 0
 c64:  4 x14 + 4 x64 + 4 x114 + 4 x164 + 4 x214 - 2 x264 <= 0
 c65:  4 x15 + 4 x65 + 4 x115 + 4 x165 + 4 x215 - 2 x265 <= 0
 c66:  4 x16 + 4 x66 + 4 x116 + 4 x166 + 4 x216 - 2 x266 <= 0
 c67:  4 x17 + 4 x67 + 4 x117 + 4 x167 + 4 x217 - 2 x267 <= 0
 c68:  4 x18 + 4 x68 + 4 x118 + 4 x168 + 4 x218 - 2 x268 <= 0
 c69:  4 x19 + 4 x69 + 4 x119 + 4 x169 + 4 x219 - 2 x269 <= 0
 c70:  4 x20 + 4 x70 + 4 x120 + 4 x170 + 4 x220 - 2 x270 <= 0
 c71:  4 x21 + 4 x71 + 4 x121 + 4 x171 + 4 x221 - 2 x271 <= 0
 c72:  4 x22 + 4 x72 + 4 x122 + 4 x172 + 4 x222 - 2 x272 <= 0
 c73:  4 x23 + 4 x73 + 4 x123 + 4 x173 + 4 x223 - 2 x273 <= 0
 c74:  4 x24 + 4 x74 + 4 x124 + 4 x174 + 4 x224 - 2 x274 <= 0
 c75:  4 x25 + 4 x75 + 4 x125 + 4 x175 + 4 x225 - 2 x275 <= 0
 c76:  4 x26 + 4 x76 + 4 x126 + 4 x176 + 4 x226 - 2 x276 <= 0
 c77:  4 x27 + 4 x77 + 4 x127 + 4 x177 + 4 x227 - 2 x277 <= 0
 c78:  4 x28 + 4 x78 + 4 x128 + 4 x178 + 4 x228 - 2 x278 <= 0
 c79:  4 x29 + 4 x79 + 4 x129 + 4 x179 + 4 x229 - 2 x279 <= 0
 c80:  4 x30 + 4 x80 + 4 x130 + 4 x180 + 4 x230 - 2 x280 <= 0
 c81:  4 x31 + 4 x81 + 4 x131 + 4 x181 + 4 x231 - 2 x281 <= 0
 c82:  4 x32 + 4 x82 + 4 x132 + 4 x182 + 4 x232 - 2 x282 <= 0
 c83:  4 x33 + 4 x83 + 4 x133 + 4 x183 + 4 x233 - 2 x283 <= 0
 c84:  4 x34 + 4 x84 + 4 x134 + 4 x184 + 4 x234 - 2 x284 <= 0
 c85:  4 x35 + 4 x85 + 4 x135 + 4 x185 + 4 x235 - 2 x285 <= 0
 c86:  4 x36 + 4 x86 + 4 x136 + 4 x186 + 4 x236 - 2 x286 <= 0
 c87:  4 x37 + 4 x87 + 4 x137 + 4 x187 + 4 x237 - 2 x287 <= 0
 c88:  4 x38 + 4 x88 + 4 x138 + 4 x188 + 4 x238 - 2 x288 <= 0
 c89:  4 x39 + 4 x89 + 4 x139 + 4 x189 + 4 x239 - 2 x289 <= 0
 c90:  4 x40 + 4 x90 + 4 x140 + 4 x190 + 4 x240 - 2 x290 <= 0
 c91:  4 x41 + 4 x91 + 4 x141 + 4 x191 + 4 x241 - 2 x291 <= 0
 c92:  4 x42 + 4 x92 + 4 x142 + 4 x192 + 4 x242 - 2 x292 <= 0
 c93:  4 x43 + 4 x93 + 4 x143 + 4 x193 + 4 x243 - 2 x293 <= 0
 c94:  4 x44 + 4 x94 + 4 x144 + 4 x194 + 4 x244 - 2 x294 <= 0
 c95:  4 x45 + 4 x95 + 4 x145 + 4 x195 + 4 x245 - 2 x295 <= 0
 c96:  4 x46 + 4 x96 + 4 x146 + 4 x196 + 4 x246 - 2 x296 <= 0
 c97:  4 x47 + 4 x97 + 4 x147 + 4 x197 + 4 x247 - 2 x297 <= 0
 c98:  4 x48 + 4 x98 + 4 x148 + 4 x198 + 4 x248 - 2 x298 <= 0
 c99:  4 x49 + 4 x99 + 4 x149 + 4 x199 + 4 x249 - 2 x299 <= 0
 c100: 4 x50 + 4 x100 + 4 x150 + 4 x200 + 4 x250 - 2 x300 <= 0
Bounds
 0 <= x1 <= 1
 0 <= x2 <= 1
 0 <= x3 <= 1
 0 <= x4 <= 1
 0 <= x5 <= 1
 0 <= x6 <= 1
 0 <= x7 <= 1
 0 <= x8 <= 1
 0 <= x9 <= 1
 0 <= x10 <= 1
 0 <= x11 <= 1
 0 <= x12 <= 1
 0 <= x13 <= 1
 0 <= x14 <= 1
 0 <= x15 <= 1
 0 <= x16 <= 1
 0 <= x17 <= 1
 0 <= x18 <= 1
 0 <= x19 <= 1
 0 <= x20 <= 1
 0 <= x21 <= 1
 0 <= x22 <= 1
 0 <= x23 <= 1
 0 <= x24 <= 1
 0 <= x25 <= 1
 0 <= x26 <= 1
 0 <= x27 <= 1
 0 <= x28 <= 1
 0 <= x29 <= 1
 0 <= x30 <= 1
 0 <= x31 <= 1
 0 <= x32 <= 1
 0 <= x33 <= 1
 0 <= x34 <= 1
 0 <= x35 <= 1
 0 <= x36 <= 1
 0 <= x37 <= 1
 0 <= x38 <= 1
 0 <= x39 <= 1
 0 <= x40 <= 1
 0 <= x41 <= 1
 0 <= x42 <= 1
 0 <= x43 <= 1
 0 <= x44 <= 1
 0 <= x45 <= 1
 0 <= x46 <= 1
 0 <= x47 <= 1
 0 <= x48 <= 1
 0 <= x49 <= 1
 0 <= x50 <= 1
 0 <= x51 <= 1
 0 <= x52 <= 1
 0 <= x53 <= 1
 0 <= x54 <= 1
 0 <= x55 <= 1
 0 <= x56 <= 1
 0 <= x57 <= 1
 0 <= x58 <= 1
 0 <= x59 <= 1
 0 <= x60 <= 1
 0 <= x61 <= 1
 0 <= x62 <= 1
 0 <= x63 <= 1
 0 <= x64 <= 1
 0 <= x65 <= 1
 0 <= x66 <= 1
 0 <= x67 <= 1
 0 <= x68 <= 1
 0 <= x69 <= 1
 0 <= x70 <= 1
 0 <= x71 <= 1
 0 <= x72 <= 1
 0 <= x73 <= 1
 0 <= x74 <= 1
 0 <= x75 <= 1
 0 <= x76 <= 1
 0 <= x77 <= 1
 0 <= x78 <= 1
 0 <= x79 <= 1
 0 <= x80 <= 1
 0 <= x81 <= 1
 0 <= x82 <= 1
 0 <= x83 <= 1
 0 <= x84 <= 1
 0 <= x85 <= 1
 0 <= x86 <= 1
 0 <= x87 <= 1
 0 <= x88 <= 1
 0 <= x89 <= 1
 0 <= x90 <= 1
 0 <= x91 <= 1
 0 <= x92 <= 1
 0 <= x93 <= 1
 0 <= x94 <= 1
 0 <= x95 <= 1
 0 <= x96 <= 1
 0 <= x97 <= 1
 0 <= x98 <= 1
 0 <= x99 <= 1
 0 <= x100 <= 1
 0 <= x101 <= 1
 0 <= x102 <= 1
 0 <= x103 <= 1
 0 <= x104 <= 1
 0 <= x105 <= 1
 0 <= x106 <= 1
 0 <= x107 <= 1
 0 <= x108 <= 1
 0 <= x109 <= 1
 0 <= x110 <= 1
 0 <= x111 <= 1
 0 <= x112 <= 1
 0 <= x113 <= 1
 0 <= x114 <= 1
 0 <= x115 <= 1
 0 <= x116 <= 1
 0 <= x117 <= 1
 0 <= x118 <= 1
 0 <= x119 <= 1
 0 <= x120 <= 1
 0 <= x121 <= 1
 0 <= x122 <= 1
 0 <= x123 <= 1
 0 <= x124 <= 1
 0 <= x125 <= 1
 0 <= x126 <= 1
 0 <= x127 <= 1
 0 <= x128 <= 1
 0 <= x129 <= 1
 0 <= x130 <= 1
 0 <= x131 <= 1
 0 <= x132 <= 1
 0 <= x133 <= 1
 0 <= x134 <= 1
 0 <= x135 <= 1
 0 <= x136 <= 1
 0 <= x137 <= 1
 0 <= x138 <= 1
 0 <= x139 <= 1
 0 <= x140 <= 1
 0 <= x141 <= 1
 0 <= x142 <= 1
 0 <= x143 <= 1
 0 <= x144 <= 1
 0 <= x145 <= 1
 0 <= x146 <= 1
 0 <= x147 <= 1
 0 <= x148 <= 1
 0 <= x149 <= 1
 0 <= x150 <= 1
 0 <= x151 <= 1
 0 <= x152 <= 1
 0 <= x153 <= 1
 0 <= x154 <= 1
 0 <= x155 <= 1
 0 <= x156 <= 1
 0 <= x157 <= 1
 0 <= x158 <= 1
 0 <= x159 <= 1
 0 <= x160 <= 1
 0 <= x161 <= 1
 0 <= x162 <= 1
 0 <= x163 <= 1
 0 <= x164 <= 1
 0 <= x165 <= 1
 0 <= x166 <= 1
 0 <= x167 <= 1
 0 <= x168 <= 1
 0 <= x169 <= 1
 0 <= x170 <= 1
 0 <= x171 <= 1
 0 <= x172 <= 1
 0 <= x173 <= 1
 0 <= x174 <= 1
 0 <= x175 <= 1
 0 <= x176 <= 1
 0 <= x177 <= 1
 0 <= x178 <= 1
 0 <= x179 <= 1
 0 <= x180 <= 1
 0 <= x181 <= 1
 0 <= x182 <= 1
 0 <= x183 <= 1
 0 <= x184 <= 1
 0 <= x185 <= 1
 0 <= x186 <= 1
 0 <= x187 <= 1
 0 <= x188 <= 1
 0 <= x189 <= 1
 0 <= x190 <= 1
 0 <= x191 <= 1
 0 <= x192 <= 1
 0 <= x193 <= 1
 0 <= x194 <= 1
 0 <= x195 <= 1
 0 <= x196 <= 1
 0 <= x197 <= 1
 0 <= x198 <= 1
 0 <= x199 <= 1
 0 <= x200 <= 1
 0 <= x201 <= 1
 0 <= x202 <= 1
 0 <= x203 <= 1
 0 <= x204 <= 1
 0 <= x205 <= 1
 0 <= x206 <= 1
 0 <= x207 <= 1
 0 <= x208 <= 1
 0 <= x209 <= 1
 0 <= x210 <= 1
 0 <= x211 <= 1
 0 <= x212 <= 1
 0 <= x213 <= 1
 0 <= x214 <= 1
 0 <= x215 <= 1
 0 <= x216 <= 1
 0 <= x217 <= 1
 0 <= x218 <= 1
 0 <= x219 <= 1
 0 <= x220 <= 1
 0 <= x221 <= 1
 0 <= x222 <= 1
 0 <= x223 <= 1
 0 <= x224 <= 1
 0 <= x225 <= 1
 0 <= x226 <= 1
 0 <= x227 <= 1
 0 <= x228 <= 1
 0 <= x229 <= 1
 0 <= x230 <= 1
 0 <= x231 <= 1
 0 <= x232 <= 1
 0 <= x233 <= 1
 0 <= x234 <= 1
 0 <= x235 <= 1
 0 <= x236 <= 1
 0 <= x237 <= 1
 0 <= x238 <= 1
 0 <= x239 <= 1
 0 <= x240 <= 1
 0 <= x241 <= 1
 0 <= x242 <= 1
 0 <= x243 <= 1
 0 <= x244 <= 1
 0 <= x245 <= 1
 0 <= x246 <= 1
 0 <= x247 <= 1
 0 <= x248 <= 1
 0 <= x249 <= 1
 0 <= x250 <= 1
 0 <= x251 <= 1
 0 <= x252 <= 1
 0 <= x253 <= 1
 0 <= x254 <= 1
 0 <= x255 <= 1
 0 <= x256 <= 1
 0 <= x257 <= 1
 0 <= x258 <= 1
 0 <= x259 <= 1
 0 <= x260 <= 1
 0 <= x261 <= 1
 0 <= x262 <= 1
 0 <= x263 <= 1
 0 <= x264 <= 1
 0 <= x265 <= 1
 0 <= x266 <= 1
 0 <= x267 <= 1
 0 <= x268 <= 1
 0 <= x269 <= 1
 0 <= x270 <= 1
 0 <= x271 <= 1
 0 <= x272 <= 1
 0 <= x273 <= 1
 0 <= x274 <= 1
 0 <= x275 <= 1
 0 <= x276 <= 1
 0 <= x277 <= 1
 0 <= x278 <= 1
 0 <= x279 <= 1
 0 <= x280 <= 1
 0 <= x281 <= 1
 0 <= x282 <= 1
 0 <= x283 <= 1
 0 <= x284 <= 1
 0 <= x285 <= 1
 0 <= x286 <= 1
 0 <= x287 <= 1
 0 <= x288 <= 1
 0 <= x289 <= 1
 0 <= x290 <= 1
 0 <= x291 <= 1
 0 <= x292 <= 1
 0 <= x293 <= 1
 0 <= x294 <= 1
 0 <= x295 <= 1
 0 <= x296 <= 1
 0 <= x297 <= 1
 0 <= x298 <= 1
 0 <= x299 <= 1
 0 <= x300 <= 1
Binaries
 x251  x252  x253  x254  x255  x256  x257  x258  x259  x260  x261  x262  x263 
 x264  x265  x266  x267  x268  x269  x270  x271  x272  x273  x274  x275  x276 
 x277  x278  x279  x280  x281  x282  x283  x284  x285  x286  x287  x288  x289 
 x290  x291  x292  x293  x294  x295  x296  x297  x298  x299  x300 
End
